c 11_4_checker_6cl.cnf
c
c field = 11
c formula set type = 4_checker_6cl
c
p cnf 6 8
12 
14 
16 
18 
-10 
-22 
13 
15 
17 
19 
-11 
-23 
14 
16 
18 
22 
-12 
-24 
15 
17 
19 
23 
-13 
-25 
16 
18 
22 
24 
-14 
-26 
17 
19 
23 
25 
-15 
-27 
18 
22 
24 
26 
-16 
-28 
19 
23 
25 
27 
-17 
-29 
